
Gurobi 10.0.1 (linux64) logging started Sun Nov 26 18:04:08 2023

Set parameter LogFile to value "ArtificialInstance/ExperimentV2/S4T5K3/AdRo/gurobi91.txt"
Gurobi Optimizer version 10.0.1 build v10.0.1rc0 (linux64)

CPU model: AMD EPYC 7H12 64-Core Processor, instruction set [SSE2|AVX|AVX2]
Thread count: 128 physical cores, 128 logical processors, using up to 32 threads

Academic license 656792 - for non-commercial use only - registered to b.___@student.vu.nl
Optimize a model with 27174 rows, 25231 columns and 98410 nonzeros
Model fingerprint: 0x7f324360
Variable types: 1 continuous, 25230 integer (25230 binary)
Coefficient statistics:
  Matrix range     [1e+00, 4e+01]
  Objective range  [1e+00, 2e+01]
  Bounds range     [1e+00, 1e+00]
  RHS range        [1e+00, 1e+00]
Presolve removed 10326 rows and 10119 columns
Presolve time: 0.90s
Presolved: 16848 rows, 15112 columns, 59635 nonzeros
Variable types: 1 continuous, 15111 integer (15111 binary)

Root relaxation: objective 8.515165e+01, 12378 iterations, 0.98 seconds (0.67 work units)

    Nodes    |    Current Node    |     Objective Bounds      |     Work
 Expl Unexpl |  Obj  Depth IntInf | Incumbent    BestBd   Gap | It/Node Time

     0     0   85.15165    0  920          -   85.15165      -     -    2s
H    0     0                     122.1743125   85.15165  30.3%     -    2s
H    0     0                      87.1059277   85.15165  2.24%     -    2s
     0     0   85.87120    0  340   87.10593   85.87120  1.42%     -    3s
     0     0   85.87120    0  217   87.10593   85.87120  1.42%     -    3s
     0     0     cutoff    0        87.10593   87.10593  0.00%     -    3s

Explored 1 nodes (27227 simplex iterations) in 3.82 seconds (2.47 work units)
Thread count was 32 (of 128 available processors)

Solution count 2: 87.1059 122.174 

Optimal solution found (tolerance 1.00e-04)
Best objective 8.710592771568e+01, best bound 8.710592771568e+01, gap 0.0000%
